row=6;
column=6;
left=[0, 11, 10, 16, 0, 0];
right=[0, 15, 0, 9, 11, 0];
top=[0, 11, 9, 6, 15, 0];
bottom=[9, 0, 15, 16, 11, 6];
Board=[|0,2,0,0,0,0|0,0,0,0,0,0|0,0,0,0,0,0|0,0,0,0,0,0|0,0,0,0,0,0|0,0,0,1,0,0|]